20 5
 0 15  1 28  2 77  3  1  4 45 
 0 64  1  4  2 36  3 59  4 73 
 0 64  1 43  2 57  3 95  4 59 
 0 48  1 93  2 15  3 49  4 63 
 0  9  1  1  2 81  3 90  4 54 
 0 91  1 81  2 82  3 78  4 98 
 0 27  1 77  2 98  3  3  4 39 
 0 34  1 69  2 97  3 69  4 75 
 0 42  1 52  2 12  3 99  4 33 
 0  3  1 28  2 35  3 41  4  8 
 0 11  1 28  2 84  3 73  4 86 
 0 54  1 77  2 70  3 28  4 41 
 0 27  1 42  2 27  3 99  4 41 
 0 30  1 53  2 37  3 13  4 22 
 0  9  1 46  2 59  3 59  4 43 
 0 15  1 49  2 42  3 47  4 34 
 0 88  1 15  2 57  3  8  4 80 
 0 55  1 43  2 16  3 92  4 16 
 0 50  1 65  2 11  3 87  4 37 
 0 57  1 41  2 34  3 62  4 94 
